;  depth   = 3
;  nconst  = 6
;  assertions = 7
;  timeout = 2500
;  time    = {'smt_solvers/QF_S/cvc4/': 5.265536785125732, 'smt_solvers/QF_S/z3str3/': 0.1342484951019287, 'smt_solvers/QF_S/z3str3fed/': 0.10077166557312012, 'smt_solvers/QF_S/z3seq/': 0.12238311767578125}
;  score   = 5.131288290023804
;  stdout  = {'smt_solvers/QF_S/cvc4/': 'unsat', 'smt_solvers/QF_S/z3str3/': 'unsat', 'smt_solvers/QF_S/z3str3fed/': 'unsat', 'smt_solvers/QF_S/z3seq/': 'unsat'}
(set-logic QF_S)(declare-fun var0 () String)(declare-fun var1 () String)(declare-fun var2 () String)(declare-fun var3 () String)(declare-fun var4 () String)(declare-fun var5 () String)(declare-fun var6 () Int)(declare-fun var7 () Int)(declare-fun var8 () Int)(declare-fun var9 () Int)(declare-fun var10 () Int)(declare-fun var11 () Int)(declare-fun var12 () Bool)(declare-fun var13 () Bool)(declare-fun var14 () Bool)(declare-fun var15 () Bool)(declare-fun var16 () Bool)(declare-fun var17 () Bool)(assert (str.in.re (str.at (str.substr var2 (str.indexof (str.at var4 var7) (str.at var5 var7) (str.indexof var5 var5 var9)) (str.indexof var4 var3 var8)) (str.indexof var0 var5 var10)) (re.inter re.allchar re.allchar)))(assert (> (str.indexof var5 var5 (str.len (str.at var1 var11))) (str.indexof var5 var2 var9)))(assert (str.contains var4 var0))(assert (not (str.contains (str.at var5 6) (str.substr var4 var10 var8))))(assert (>= (str.indexof var5 var4 var6) (str.len var0)))(assert (< (str.len "}2$ToP|T/7") (str.indexof (str.substr var1 var10 var10) (str.substr var2 var9 var9) (str.indexof var4 var2 var9))))(assert (not var17))(check-sat)